(declare-const X String)
; www\x2Eemp3finder\x2Ecom\d+ZOMBIES\x5fHTTP\x5fGET
(assert (not (str.in_re X (re.++ (str.to_re "www.emp3finder.com") (re.+ (re.range "0" "9")) (str.to_re "ZOMBIES_HTTP_GET\u{a}")))))
; www\x2eproventactics\x2ecomKeyloggerExplorerfileserverSI\|Server\|www\x2Emyarmory\x2Ecom
(assert (not (str.in_re X (str.to_re "www.proventactics.comKeyloggerExplorerfileserverSI|Server|\u{13}www.myarmory.com\u{a}"))))
; ^(([a-zA-Z]:)|(\\{2}\w+)\$?)(\\(\w[\w ]*.*))+\.(txt|TXT)$
(assert (str.in_re X (re.++ (re.union (re.++ (re.union (re.range "a" "z") (re.range "A" "Z")) (str.to_re ":")) (re.++ (re.opt (str.to_re "$")) ((_ re.loop 2 2) (str.to_re "\u{5c}")) (re.+ (re.union (re.range "0" "9") (re.range "A" "Z") (re.range "a" "z") (str.to_re "_"))))) (re.+ (re.++ (str.to_re "\u{5c}") (re.union (re.range "0" "9") (re.range "A" "Z") (re.range "a" "z") (str.to_re "_")) (re.* (re.union (str.to_re " ") (re.range "0" "9") (re.range "A" "Z") (re.range "a" "z") (str.to_re "_"))) (re.* re.allchar))) (str.to_re ".") (re.union (str.to_re "txt") (str.to_re "TXT")) (str.to_re "\u{a}"))))
(check-sat)
